215 235 240 590
40 60 40
40 60 40
40 60 40
40 60 40
40 60 40
40 60 40
40 60 40
40 60 40
40 60 40
40 120 40
40 120 40
40 120 40
40 60 40
40 60 40
40 60 40
40 60 40
40 60 40
40 60 40
40 60 40
40 60 40
40 60 40
40 120 40
40 120 40
40 120 40
40 120 40
40 120 40
40 120 40
40 60 40
40 60 40
40 60 40
40 60 40
40 60 40
40 60 40
40 60 40
40 60 40
40 60 40
40 120 40
40 120 40
40 120 40
40 120 40
40 60 40
40 60 40
40 60 40
40 60 40
40 60 40
40 60 40
40 60 40
40 60 40
40 60 40
40 60 40
40 60 40
40 60 40
40 60 40
40 60 40
40 60 40
40 120 40
40 60 40
40 60 40
40 60 40
40 60 40
40 60 40
40 60 40
40 60 40
40 60 40
40 60 40
40 60 40
40 60 40
40 120 40
40 120 40
40 120 40
40 120 40
40 120 40
40 120 40
40 120 40
40 120 40
40 120 40
40 60 40
40 60 40
40 60 40
40 60 40
40 60 40
40 60 40
40 60 40
40 60 40
40 60 40
40 60 40
40 60 40
40 60 40
40 60 40
40 60 40
40 60 40
40 60 40
40 60 40
40 60 40
40 60 40
40 60 40
40 60 40
40 60 40
40 60 40
40 120 40
